Data path: /scratch/opt/lxu/CFLG/benchmarks/tree_B
Instance: treeB.30.4
Result path: /scratch/opt/lxu/CFLG/results/tree_B
Solver: Gurobi
Time limit: 7200
Formulation: LEFPAI
Cover: Large
julia --project=. src/main.jl /scratch/opt/lxu/CFLG/benchmarks/tree_B treeB.30.4 /scratch/opt/lxu/CFLG/results/tree_B Gurobi 7200 LEFPAI Large
The latest version of Julia in the `release` channel is 1.11.6+0.x64.linux.gnu. You currently have `1.11.4+0.x64.linux.gnu` installed. Run:

  juliaup update

in your terminal shell to install Julia 1.11.6+0.x64.linux.gnu and update the `release` channel to that version.
/scratch/opt/lxu/CFLG/benchmarks/tree_B Gurobi 7200.0 /scratch/opt/lxu/CFLG/results/tree_B treeB.30.4 LEFPAI Large
/scratch/opt/lxu/CFLG/benchmarks/tree_B/treeB.30.4

 read graph
data loaded

problem_graph/original graph: node: 30/30 edge: 33/33 dlt: 2.9995589741121127 break_avg_len: 1.4997794870560563 break_max_len: 1.9852215206607577Vbar/V, Ebar/E(23, 30, 26, 33)
Set parameter TokenServer to value "solice01.zib.de"
Set parameter Threads to value 1
Set parameter OutputFlag to value 1
Gurobi Optimizer version 12.0.1 build v12.0.1rc0 (linux64 - "Debian GNU/Linux 12 (bookworm)")

CPU model: Intel(R) Xeon(R) Gold 5222 CPU @ 3.80GHz, instruction set [SSE2|AVX|AVX2|AVX512]
Thread count: 8 physical cores, 16 logical processors, using up to 1 threads

Non-default parameters:
Threads  1

Optimize a model with 51 rows, 81 columns and 135 nonzeros
Model fingerprint: 0x67cb17a7
Coefficient statistics:
  Matrix range     [1e+00, 1e+00]
  Objective range  [1e+00, 1e+00]
  Bounds range     [1e+00, 1e+00]
  RHS range        [1e+00, 1e+00]
Presolve removed 36 rows and 49 columns
Presolve time: 0.00s
Presolved: 15 rows, 32 columns, 50 nonzeros

Iteration    Objective       Primal Inf.    Dual Inf.      Time
       0    2.3000000e+01   1.000000e+01   0.000000e+00      0s
       8    1.5000000e+01   0.000000e+00   0.000000e+00      0s

Solved in 8 iterations and 0.00 seconds (0.00 work units)
Optimal objective  1.500000000e+01

User-callback calls 115, time in user-callback 0.00 sec
elapsed CPU time: 1.015215 seconds
Set parameter TokenServer to value "solice01.zib.de"
Set parameter Threads to value 1
Set parameter OutputFlag to value 1
Set parameter MIPGap to value 0.0001
Set parameter TimeLimit to value 7198.984785

 more cuts: false 2.9995589741121127 false
is_attach:trueformulation:LEFPAI0 27 24

 model loaded

Gurobi Optimizer version 12.0.1 build v12.0.1rc0 (linux64 - "Debian GNU/Linux 12 (bookworm)")

CPU model: Intel(R) Xeon(R) Gold 5222 CPU @ 3.80GHz, instruction set [SSE2|AVX|AVX2|AVX512]
Thread count: 8 physical cores, 16 logical processors, using up to 1 threads

Non-default parameters:
TimeLimit  7198.984785
Threads  1

Optimize a model with 569 rows, 461 columns and 1526 nonzeros
Model fingerprint: 0xd883db96
Model has 329 simple general constraints
  329 INDICATOR
Variable types: 78 continuous, 383 integer (383 binary)
Coefficient statistics:
  Matrix range     [6e-02, 2e+00]
  Objective range  [1e+00, 1e+00]
  Bounds range     [6e-02, 2e+00]
  RHS range        [6e-02, 4e+00]
  GenCon rhs range [3e-03, 3e+00]
  GenCon coe range [1e+00, 1e+00]
Presolve removed 94 rows and 176 columns
Presolve time: 0.02s
Presolved: 475 rows, 285 columns, 2511 nonzeros
Variable types: 45 continuous, 240 integer (240 binary)
Found heuristic solution: objective 18.0000000
Found heuristic solution: objective 17.0000000
Found heuristic solution: objective 15.0000000
Found heuristic solution: objective 14.0000000

Root relaxation: objective 5.000000e+00, 160 iterations, 0.00 seconds (0.00 work units)

    Nodes    |    Current Node    |     Objective Bounds      |     Work
 Expl Unexpl |  Obj  Depth IntInf | Incumbent    BestBd   Gap | It/Node Time

H    0     0                       5.0000000    5.00000  0.00%     -    0s
     0     0    5.00000    0   35    5.00000    5.00000  0.00%     -    0s

Explored 1 nodes (160 simplex iterations) in 0.03 seconds (0.02 work units)
Thread count was 1 (of 16 available processors)

Solution count 5: 5 14 15 ... 18

Optimal solution found (tolerance 1.00e-04)
Best objective 5.000000000000e+00, best bound 5.000000000000e+00, gap 0.0000%

User-callback calls 973, time in user-callback 0.00 sec

 sepatime0 0 0
5.0
Stat(MathOptInterface.OPTIMAL, 5.0, 5.0, 0.0, 0.0, 1.015215, 0.02894282341003418, 1, Main.CFLG.LEFPAI, "", #undef)
ERROR: LoadError: SystemError: opening file "/scratch/opt/lxu/CFLG/results/tree_B/treeB.30.4.LEFPAI.Large": No such file or directory
Stacktrace:
 [1] systemerror(p::String, errno::Int32; extrainfo::Nothing)
   @ Base ./error.jl:176
 [2] systemerror
   @ ./error.jl:175 [inlined]
 [3] open(fname::String; lock::Bool, read::Nothing, write::Nothing, create::Nothing, truncate::Bool, append::Nothing)
   @ Base ./iostream.jl:295
 [4] open
   @ ./iostream.jl:277 [inlined]
 [5] open(fname::String, mode::String; lock::Bool)
   @ Base ./iostream.jl:358
 [6] open
   @ ./iostream.jl:357 [inlined]
 [7] main(args::Vector{String})
   @ Main /scratch/opt/lxu/CFLG/src/main.jl:51
 [8] top-level scope
   @ /scratch/opt/lxu/CFLG/src/main.jl:57
in expression starting at /scratch/opt/lxu/CFLG/src/main.jl:57
srun: error: htc-cmp483: task 0: Exited with exit code 1
